db/data/14137152182116624024717231243546515035.z3.out
-------------------
2500.199529514
